p cnf 150 225
1 142 0
1 41 0
1 122 0
2 35 0
2 65 0
2 120 0
3 8 0
3 113 0
3 74 0
4 6 0
4 46 0
4 73 0
5 36 0
5 100 0
5 137 0
6 86 0
6 69 0
7 16 0
7 128 0
7 10 0
8 60 0
8 99 0
9 150 0
9 100 0
9 102 0
10 96 0
10 38 0
11 39 0
11 19 0
11 114 0
12 37 0
12 92 0
12 90 0
13 94 0
13 95 0
13 74 0
14 112 0
14 40 0
14 136 0
15 43 0
15 93 0
15 149 0
16 129 0
16 63 0
17 102 0
17 68 0
17 53 0
18 83 0
18 87 0
18 59 0
19 59 0
19 142 0
20 109 0
20 111 0
20 91 0
21 56 0
21 47 0
21 73 0
22 28 0
22 41 0
22 147 0
23 133 0
23 114 0
23 108 0
24 30 0
24 83 0
24 35 0
25 104 0
25 76 0
25 40 0
26 124 0
26 61 0
26 127 0
27 143 0
27 127 0
27 55 0
28 145 0
28 138 0
29 55 0
29 51 0
29 107 0
30 130 0
30 122 0
31 148 0
31 71 0
31 77 0
32 67 0
32 113 0
32 93 0
33 115 0
33 90 0
33 121 0
34 97 0
34 82 0
34 132 0
35 38 0
36 132 0
36 129 0
37 107 0
37 138 0
38 140 0
39 129 0
39 78 0
40 68 0
41 84 0
42 49 0
42 61 0
42 56 0
43 123 0
43 87 0
44 70 0
44 74 0
44 60 0
45 106 0
45 62 0
45 57 0
46 110 0
46 86 0
47 128 0
47 66 0
48 103 0
48 122 0
48 78 0
49 104 0
49 91 0
50 97 0
50 126 0
50 114 0
51 67 0
51 116 0
52 95 0
52 78 0
52 80 0
53 96 0
53 110 0
54 124 0
54 143 0
54 55 0
56 138 0
57 120 0
57 137 0
58 79 0
58 117 0
58 89 0
59 144 0
60 125 0
61 73 0
62 139 0
62 64 0
63 116 0
63 75 0
64 117 0
64 96 0
65 148 0
65 79 0
66 95 0
66 70 0
67 68 0
69 150 0
69 89 0
70 115 0
71 121 0
71 94 0
72 140 0
72 127 0
72 75 0
75 133 0
76 148 0
76 105 0
77 101 0
77 85 0
79 135 0
80 104 0
80 140 0
81 88 0
81 83 0
81 93 0
82 119 0
82 145 0
84 118 0
84 109 0
85 121 0
85 103 0
86 126 0
87 118 0
88 141 0
88 130 0
89 150 0
90 149 0
91 117 0
92 146 0
92 105 0
94 108 0
97 130 0
98 139 0
98 110 0
98 112 0
99 119 0
99 108 0
100 101 0
101 139 0
102 106 0
103 133 0
105 131 0
106 142 0
107 109 0
111 128 0
111 119 0
112 149 0
113 147 0
115 116 0
118 141 0
120 146 0
123 134 0
123 132 0
124 143 0
125 144 0
125 141 0
126 146 0
131 134 0
131 135 0
134 145 0
135 136 0
136 144 0
137 147 0
g -92